c preprocessed version of DejterGraph, 112 vertices, 336 edges
p td 112 336
0 19
0 24
0 34
0 46
0 65
0 90
1 20
1 24
1 36
1 57
1 66
1 101
2 28
2 43
2 75
3 7
3 11
4 5
4 6
4 12
5 7
5 14
6 7
6 15
8 9
8 10
8 12
9 11
9 14
10 11
10 15
12 14
12 15
13 16
13 17
13 29
13 44
16 30
16 45
16 76
17 31
17 47
17 77
18 19
18 20
18 22
18 26
18 49
18 80
19 21
19 23
19 50
19 81
20 21
20 27
20 51
20 82
21 25
21 28
21 83
22 23
22 29
22 52
22 84
23 25
23 30
23 53
24 2
24 21
24 37
24 68
25 32
25 55
25 86
26 27
26 29
26 56
26 87
27 28
27 31
27 59
28 32
28 60
28 89
29 30
29 31
29 91
30 32
30 61
30 92
31 32
31 62
31 93
32 63
32 94
33 34
33 36
33 38
33 41
33 49
33 95
34 37
34 42
34 50
34 96
35 13
35 22
35 38
35 46
35 57
35 67
36 37
36 39
36 51
36 97
37 40
37 43
37 98
38 39
38 44
38 52
38 99
39 40
39 47
39 54
40 48
40 55
40 102
41 42
41 44
41 56
41 103
42 43
42 45
42 58
43 48
43 60
43 105
44 45
44 47
44 106
45 48
45 61
45 107
46 16
46 23
46 68
46 69
47 48
47 62
47 108
48 63
48 109
49 50
49 51
49 52
49 56
50 53
50 58
50 110
51 54
51 59
51 111
52 4
52 53
52 54
53 5
53 55
53 61
54 6
54 55
54 62
55 7
55 63
56 8
56 58
56 59
57 17
57 39
57 68
57 70
58 9
58 60
58 61
59 10
59 60
59 62
60 11
60 63
61 14
61 63
62 15
62 63
64 65
64 66
64 67
64 72
64 80
64 95
65 69
65 73
65 81
65 96
66 70
66 74
66 82
66 97
67 69
67 70
67 84
67 99
68 25
68 40
68 71
69 71
69 76
69 100
70 71
70 77
70 85
71 78
71 86
71 102
72 73
72 74
72 87
72 103
73 75
73 76
73 88
74 75
74 77
74 104
75 78
75 89
75 105
76 78
76 92
76 107
77 78
77 93
77 108
78 94
78 109
79 13
79 26
79 41
79 72
79 90
79 101
80 81
80 82
80 84
80 87
81 83
81 88
81 110
82 83
82 85
82 111
83 3
83 86
83 89
84 4
84 85
84 91
85 6
85 86
85 93
86 7
86 94
87 8
87 88
87 91
88 9
88 89
88 92
89 11
89 94
90 2
90 16
90 42
90 73
91 12
91 92
91 93
92 14
92 94
93 15
93 94
95 96
95 97
95 99
95 103
96 98
96 100
96 110
97 98
97 104
97 111
98 3
98 102
98 105
99 4
99 100
99 106
100 5
100 102
100 107
101 2
101 17
101 27
101 74
102 7
102 109
103 8
103 104
103 106
104 10
104 105
104 108
105 11
105 109
106 12
106 107
106 108
107 14
107 109
108 15
108 109
110 3
110 5
110 9
111 3
111 6
111 10
